p tw 461 532
1 2
2 113
3 14
4 5
4 34
5 6
6 7
6 29
7 372
8 9
9 10
10 11
11 430
12 13
13 15
14 25
15 430
16 17
17 18
18 430
19 20
20 21
21 34
22 23
23 24
24 34
25 36
26 27
27 28
28 34
29 30
30 31
31 34
32 33
33 34
34 35
35 37
36 47
37 38
38 39
38 45
39 40
40 41
41 42
42 43
43 44
43 34
44 387
45 46
46 48
47 58
48 49
49 50
50 51
51 52
52 53
52 54
53 54
54 55
55 56
55 84
56 57
57 59
58 69
58 387
59 60
60 61
60 63
61 62
62 95
63 64
64 65
65 66
65 84
66 67
67 68
68 70
69 80
70 71
71 72
71 149
72 73
73 74
73 81
74 75
75 76
75 81
76 77
77 78
78 79
79 138
80 91
81 82
82 83
83 95
84 85
85 86
85 101
86 87
87 88
87 101
88 89
89 90
90 92
91 102
92 93
92 95
93 94
94 95
94 101
95 96
96 97
97 98
98 99
99 100
100 101
100 387
101 103
102 114
102 355
103 104
104 105
105 106
106 107
107 108
108 109
109 110
110 111
111 112
112 115
113 224
114 125
115 116
115 117
116 117
116 119
117 118
118 119
118 387
119 120
120 121
120 149
121 122
122 123
123 124
123 149
124 126
124 149
125 136
126 127
127 128
128 129
129 130
130 131
131 132
132 133
133 134
134 135
135 137
136 147
137 138
138 139
139 140
140 141
141 142
142 143
143 144
144 145
145 146
146 148
147 158
148 119
149 150
150 151
150 382
151 152
152 153
152 154
153 154
154 155
155 156
155 164
156 157
157 159
158 169
159 160
160 161
161 162
162 163
163 173
164 165
165 166
166 167
167 168
168 170
169 180
170 171
171 172
172 173
173 174
174 175
175 382
176 177
177 178
178 179
179 181
180 191
181 182
182 289
183 184
184 185
185 186
186 187
187 188
188 189
189 190
190 192
190 195
191 202
192 193
193 194
194 197
195 196
196 197
197 198
198 199
199 200
200 201
201 203
202 213
203 204
203 206
204 205
205 206
205 214
206 207
207 208
208 209
209 210
210 211
211 212
212 214
213 225
214 215
215 216
216 217
217 218
218 219
219 220
219 273
220 221
220 387
221 222
222 223
222 257
223 226
224 335
225 236
226 227
226 230
227 228
228 229
228 263
229 265
230 231
231 232
232 233
233 234
234 235
235 237
236 247
237 238
237 257
238 239
239 240
240 241
241 242
242 243
243 244
244 245
245 246
245 253
246 248
247 258
248 249
249 250
250 251
251 252
252 241
253 254
254 255
255 256
256 265
257 259
258 269
259 260
260 261
261 262
262 265
263 264
264 265
265 266
266 267
267 268
268 270
269 280
270 271
271 272
272 216
273 274
274 275
275 289
276 277
277 278
278 279
279 281
280 291
281 282
282 283
282 289
283 284
284 285
285 286
286 287
287 288
287 278
288 387
289 290
290 292
291 302
292 293
293 294
294 295
295 296
296 297
296 315
297 298
298 299
299 300
300 301
301 303
302 313
303 304
304 305
305 306
305 310
306 307
307 308
308 309
309 310
309 315
310 311
311 312
311 387
312 314
313 324
314 387
315 316
316 317
317 318
318 319
319 320
320 321
320 325
321 322
322 323
323 325
324 336
325 326
326 327
327 328
328 329
329 330
330 331
330 344
331 332
332 333
332 344
333 334
334 337
335 407
336 347
337 338
338 339
339 340
340 341
341 342
342 343
343 344
343 319
344 345
345 346
345 382
346 348
346 349
347 358
348 349
349 350
350 351
351 382
352 353
353 354
354 372
355 356
356 357
357 359
358 369
359 360
360 361
360 372
361 362
362 363
363 364
364 365
364 382
365 366
366 367
367 368
368 370
369 380
369 404
370 371
370 361
371 387
372 373
373 374
374 375
375 376
376 377
377 378
377 387
378 379
379 381
380 391
381 382
382 383
383 384
384 385
385 386
386 387
386 36
387 388
388 389
389 390
389 393
390 392
390 393
391 402
392 401
393 394
394 395
395 396
395 399
396 397
397 398
398 399
399 400
400 401
401 403
402 404
404 405
405 406
406 408
407 418
407 429
408 409
409 410
410 411
411 412
412 413
413 414
413 427
414 415
415 416
415 417
416 417
417 419
418 401
419 420
420 421
421 422
422 423
423 424
424 425
425 426
426 406
427 428
428 430
429 440
430 431
431 432
432 433
433 434
434 435
435 436
436 437
437 438
438 439
438 352
439 441
440 451
441 442
441 8
442 443
443 444
443 183
444 445
445 446
445 22
446 447
447 448
447 176
448 449
449 450
449 32
450 452
451 3
452 453
452 16
453 454
454 455
454 19
455 456
456 457
456 12
457 458
458 459
458 26
459 460
460 461
460 276
461 4
